45 62 68 15 35 4 10 70 58 56 20 7 65 30 8 13 21 51 79 40 34 74 6 14 44 0 41 3 11 75 78 2 39 23 24 71 49 63 48 18 61 38 50 36 37 1 64 55 28 73 54 27 12 16 9 67 29 53 47 57 46 19 77 42 17 33 5 59 52 22 32 43 25 72 31 66 69 76 60 26
